102
2
2
3
10 2 3 5 6 7 8 9 10 11 12 
6 27 21 20 17 14 4 
5 31 27 21 15 4 
9 34 26 25 23 22 19 18 16 13 
7 31 23 21 19 18 17 13 
9 37 36 33 30 25 23 22 21 19 
4 33 26 24 14 
7 36 30 24 23 22 19 15 
8 37 33 31 30 28 26 25 22 
9 49 39 37 36 33 31 30 24 22 
6 37 33 30 23 22 19 
6 32 31 30 26 25 16 
9 39 37 36 35 33 32 30 28 24 
4 32 30 25 16 
6 42 35 33 32 29 28 
6 44 42 37 36 35 28 
5 42 36 35 29 28 
5 44 42 37 35 28 
4 42 35 29 28 
4 47 42 28 25 
6 47 44 42 35 32 28 
5 42 40 35 32 29 
7 47 45 44 42 40 39 35 
4 42 40 38 29 
6 49 44 40 39 38 35 
6 53 47 44 42 40 35 
5 49 47 45 42 32 
5 49 43 41 40 38 
7 64 48 47 45 44 43 41 
6 53 51 48 47 44 42 
6 57 53 51 46 45 40 
6 64 55 53 48 43 41 
8 64 57 54 52 51 48 47 46 
5 52 51 49 47 46 
4 61 55 52 41 
9 68 57 56 54 53 52 51 50 48 
6 60 54 53 51 47 45 
7 67 61 57 54 53 52 46 
6 67 61 57 54 53 46 
6 68 64 55 54 52 48 
4 57 54 51 46 
2 67 43 
3 61 54 46 
7 68 67 62 55 54 52 50 
9 72 68 67 66 62 61 59 56 50 
7 72 68 62 60 59 56 50 
11 80 72 70 67 66 65 63 62 61 58 55 
10 80 70 67 65 63 62 61 60 59 58 
5 80 63 62 58 54 
7 80 78 75 70 65 63 58 
7 80 78 72 67 66 65 59 
5 80 65 63 59 58 
7 80 78 73 70 69 66 63 
4 74 72 66 65 
7 85 78 77 76 75 74 73 
4 76 75 73 63 
6 84 78 77 74 73 72 
5 77 76 73 71 69 
5 85 77 76 75 74 
5 85 78 77 75 74 
6 85 84 81 78 77 71 
5 85 84 77 74 73 
4 85 84 77 74 
4 84 82 77 70 
3 77 76 69 
5 93 88 85 79 75 
5 93 85 84 82 77 
5 93 85 82 81 77 
10 101 93 91 89 88 86 85 84 83 82 
6 93 88 85 83 81 79 
7 101 93 91 88 83 82 79 
7 101 93 91 88 85 83 79 
8 101 93 91 89 88 86 83 82 
6 93 89 88 83 82 81 
6 89 86 84 83 82 81 
6 101 93 91 88 83 79 
5 101 91 88 83 79 
5 101 93 92 86 82 
4 99 89 87 86 
5 100 92 90 88 87 
5 101 99 92 91 87 
5 100 99 98 96 90 
4 99 95 92 87 
7 100 99 98 97 96 95 94 
4 100 98 95 92 
2 100 90 
4 98 97 96 94 
4 99 96 95 94 
2 95 92 
3 97 95 94 
3 96 95 94 
2 96 94 
2 95 94 
1 102
1 102
1 102
1 102
1 102
1 102
1 102
1 102
0 
0 0 0 0 0
0 0 0 0 0
0 0 0 0 0
1 3 0 10 3
3 0 1 8 3
5 0 1 8 2
1 1 0 5 4
3 1 0 2 3
10 0 5 2 2
2 0 4 4 8
3 0 2 3 7
10 1 0 3 6
7 3 0 2 6
8 0 4 2 5
10 3 0 2 5
2 5 0 6 6
5 5 0 4 5
9 0 2 2 5
2 0 4 3 9
6 0 4 1 10
7 0 4 1 9
7 0 3 8 4
7 3 0 6 3
8 3 0 4 1
4 0 4 9 3
5 0 4 8 2
9 0 4 6 2
1 3 0 4 8
4 0 2 3 3
5 1 0 1 1
3 0 5 7 5
4 3 0 7 4
7 0 2 7 3
2 3 0 6 7
5 3 0 3 6
8 0 4 3 5
3 2 0 7 6
9 2 0 6 4
10 2 0 5 4
1 3 0 8 7
1 0 3 7 3
5 0 3 4 1
1 0 2 7 7
2 0 2 5 5
8 0 2 5 4
6 5 0 4 10
8 4 0 4 9
10 0 3 4 8
4 0 4 7 8
5 3 0 5 7
8 0 3 4 6
2 0 2 7 10
8 4 0 6 9
10 0 2 2 9
1 2 0 8 3
3 0 1 8 2
4 0 1 8 1
1 5 0 9 7
3 3 0 6 7
9 3 0 3 7
2 0 5 7 8
4 0 3 4 7
7 3 0 4 7
2 2 0 5 5
8 1 0 4 4
9 1 0 3 3
7 0 3 3 7
8 3 0 3 6
9 1 0 3 6
3 0 5 5 7
4 2 0 4 4
8 2 0 3 3
5 0 1 3 3
6 0 1 3 2
9 2 0 3 2
2 5 0 8 10
3 0 1 7 9
10 0 1 7 8
2 0 4 9 5
6 0 2 6 5
8 2 0 4 2
5 0 3 6 7
6 4 0 5 7
10 0 2 5 5
1 2 0 6 8
4 2 0 6 6
4 0 2 4 6
2 4 0 5 8
5 0 4 5 8
8 0 3 5 8
5 0 4 3 8
8 0 2 1 7
9 3 0 1 4
2 2 0 6 9
3 2 0 5 7
7 2 0 3 7
3 0 2 7 3
6 0 1 7 3
7 0 1 7 1
5 0 4 8 6
7 2 0 8 4
7 0 3 6 3
5 0 5 10 5
6 0 4 9 3
8 1 0 9 2
5 0 5 2 5
7 0 2 2 4
9 0 1 1 2
1 0 3 4 10
2 2 0 3 6
5 2 0 2 5
4 5 0 5 5
8 0 3 5 3
9 0 3 5 2
3 0 4 2 7
5 0 4 2 6
6 0 4 2 5
5 0 3 6 8
9 2 0 5 5
10 0 3 4 2
1 1 0 3 5
2 1 0 2 4
8 1 0 1 4
7 1 0 7 9
8 1 0 4 8
9 1 0 1 6
1 3 0 8 7
2 0 2 7 5
8 1 0 7 2
2 4 0 8 4
4 0 2 5 2
7 2 0 4 2
1 2 0 5 6
9 1 0 3 4
9 0 4 3 3
4 0 3 7 8
4 2 0 5 7
6 0 1 2 7
1 0 5 8 5
3 3 0 7 4
7 0 2 7 4
1 4 0 4 2
3 0 3 3 2
10 0 3 3 1
4 0 1 6 4
4 2 0 5 4
5 1 0 4 4
8 0 3 3 8
9 0 2 2 8
10 0 2 2 7
4 2 0 5 10
5 0 2 4 5
6 0 2 4 3
7 0 2 1 7
8 0 1 1 5
10 0 1 1 3
3 4 0 7 8
4 4 0 6 8
5 0 1 6 7
1 0 4 4 9
6 3 0 4 7
8 3 0 2 6
3 0 5 7 8
4 0 5 7 7
7 2 0 7 7
2 0 1 9 10
3 2 0 6 9
10 1 0 4 9
3 4 0 10 6
4 4 0 8 5
7 4 0 7 4
2 0 3 9 3
5 2 0 9 3
9 2 0 8 3
6 2 0 1 6
7 2 0 1 5
9 0 1 1 5
7 0 4 4 1
8 0 2 4 2
10 0 2 4 1
6 0 5 9 5
10 0 3 6 4
10 1 0 2 1
1 0 2 7 7
4 0 2 5 7
5 0 1 4 7
2 0 2 7 6
5 3 0 4 2
6 2 0 3 1
1 4 0 5 7
2 3 0 3 6
4 2 0 3 5
4 0 3 8 11
5 0 3 8 10
8 0 2 7 10
2 0 4 8 4
2 2 0 6 4
3 2 0 2 1
7 3 0 6 2
9 2 0 4 2
9 0 3 2 2
2 0 2 5 8
8 4 0 5 8
10 4 0 5 7
2 0 2 8 6
9 0 2 6 4
10 1 0 5 2
1 0 4 10 5
6 3 0 10 4
9 0 3 10 4
2 1 0 4 7
6 1 0 4 4
10 1 0 4 2
1 3 0 7 7
4 3 0 6 7
9 0 3 5 6
1 4 0 5 8
2 3 0 5 6
5 0 3 2 5
5 0 2 8 9
8 0 1 7 4
9 0 1 6 2
2 0 2 3 10
4 3 0 2 7
6 0 2 2 3
1 2 0 5 6
3 2 0 4 5
6 2 0 4 4
3 0 5 8 8
5 2 0 8 5
10 1 0 7 3
4 0 4 9 6
7 4 0 6 4
8 2 0 4 1
1 0 2 7 4
3 0 2 6 4
10 2 0 5 4
4 4 0 7 4
8 0 2 6 4
9 1 0 6 3
1 1 0 6 7
7 0 2 4 4
8 1 0 3 3
2 1 0 2 6
9 1 0 2 4
10 0 3 1 2
5 0 4 7 5
6 0 3 7 5
9 4 0 6 4
5 0 5 2 7
10 0 4 2 6
10 2 0 1 5
4 3 0 7 3
6 2 0 5 2
10 2 0 3 1
5 0 1 4 8
7 2 0 3 8
7 0 1 3 7
3 0 4 8 7
9 0 3 6 7
10 0 2 4 3
1 2 0 10 4
4 0 2 7 4
10 0 2 7 3
2 0 4 8 8
5 0 3 8 7
7 0 3 8 3
2 5 0 9 7
7 5 0 7 4
7 0 2 4 3
4 0 5 2 3
7 0 5 2 2
9 0 5 2 1
2 2 0 6 6
8 2 0 5 5
8 0 1 3 2
6 4 0 4 3
8 3 0 3 3
9 3 0 3 2
1 0 4 8 9
3 0 3 8 8
8 0 3 5 7
4 0 1 5 3
6 0 1 4 2
8 0 1 4 1
1 3 0 7 6
8 0 1 7 5
9 0 1 5 4
7 0 1 10 6
8 0 1 8 5
10 3 0 5 5
2 0 4 1 10
8 4 0 1 4
10 2 0 1 2
3 2 0 8 3
6 2 0 7 3
10 2 0 7 2
7 0 4 8 7
8 0 3 7 6
9 0 1 5 6
5 0 3 9 8
6 0 3 9 7
7 0 3 9 6
0 0 0 0 0
0 0 0 0 0
0 0 0 0 0
20 19 512 520